n = 19;
lu = [|135, 293
      |193, 293
      |-174, 98
      |269, 293
      |-239, 53
      |-64, 357
      |-287, -131
      |-37, 325
      |-211, -132
      |-119, 295
      |-53, 92
      |-6, 221
      |-303, 53
      |-336, -293
      |-224, 140
      |-157, 138
      |-276, -243
      |-345, 149
      |-203, 260|];
